#psi4
#
memory ${memory} gb

molecule {
${geometry}units angstrom
no_reorient  #important for SAPT in psi4, default
symmetry c1  #important for SAPT in psi4, default
}

set {
basis aug-cc-pVTZ
scf_type DF
freeze_core True
}
energy('mp2d/aug-cc-pv[dt]z', bsse_type='cp')
