#psi4
#
memory ${memory} gb

molecule {
${geometry}units angstrom
no_reorient  #important for SAPT in psi4, default
symmetry c1  #important for SAPT in psi4, default
}

set {
basis aug-cc-pvdz
scf_type DF
freeze_core True
}
energy('mp2/aug-cc-pv[tq]z + D:ccsd(t)/aug-cc-pvdz', bsse_type='cp')

