#psi4
#
memory ${memory} gb

molecule {
${geometry}units angstrom
no_reorient  #important for SAPT in psi4, default
symmetry c1  #important for SAPT in psi4, default
}

set {
basis aug-cc-pVDZ
scf_type DF
freeze_core True
}
${PS}

energy('sapt2+')
