#psi4
#
memory ${memory} gb

molecule {
${geometry}units angstrom
no_reorient  #important for SAPT in psi4, default
symmetry c1  #important for SAPT in psi4, default
}

set {
basis 6-31g**
scf_type DF
freeze_core True
}
energy('mp2/aug-cc-pv[tq]z + D:ccsd(t)/6-31g**', bsse_type='cp')

