#psi4
#
memory ${memory} gb

molecule {
${geometry}units angstrom
no_reorient  #important for SAPT in psi4, default
symmetry c1  #important for SAPT in psi4, default
}

set {
basis def2-QZVP
scf_type DF
freeze_core True
}
energy('scf', dft_functional = 'B2GPPLYP-D3BJ', bsse_type='cp')

