%chk=6.chk
%nproc=8
%mem=20GB
# opt(ModRedundant) freq b3lyp/6-31g(d) nosymm

Optimization

0 1 0 1 0 1 0 1 0 1 0 1 
S(Fragment=1)       2.2485       2.3170      -0.4237
O(Fragment=1)      -2.3553       0.5244      -0.1743
N(Fragment=1)      -0.1631       1.2205      -0.2564
N(Fragment=1)      -0.6694      -1.0129       0.1019
C(Fragment=1)      -1.1692       0.2684      -0.1165
C(Fragment=1)       1.2076       1.0237      -0.2140
C(Fragment=1)       1.6140      -0.3375       0.0221
C(Fragment=1)       0.6713      -1.3013       0.1687
H(Fragment=1)      -0.4939       2.1658      -0.4221
H(Fragment=1)      -1.3714      -1.7332       0.2089
H(Fragment=1)       2.6727      -0.5656       0.0750
H(Fragment=1)       0.9191      -2.3425       0.3438
O(Fragment=1)       4.8557       0.1593      -0.0321
H(Fragment=1)       4.2299       0.8845      -0.2296
H(Fragment=1)       5.1531       0.3645       0.8673
S(Fragment=2)       4.7815       5.3672      -0.9529
O(Fragment=2)       5.6425      10.1686      -1.7744
N(Fragment=2)       5.3908       7.9124      -1.3967
N(Fragment=2)       7.5072       8.8492      -1.5220
C(Fragment=2)       6.1343       9.0750      -1.5803
C(Fragment=2)       5.8594       6.6298      -1.1626
C(Fragment=2)       7.2939       6.5094      -1.1271
C(Fragment=2)       8.0626       7.6125      -1.3043
H(Fragment=2)       4.3847       8.0430      -1.4284
H(Fragment=2)       8.0817       9.6716      -1.6514
H(Fragment=2)       7.7328       5.5329      -0.9553
H(Fragment=2)       9.1464       7.5820      -1.2832
O(Fragment=2)       7.4472       3.2826      -0.5590
H(Fragment=2)       6.5892       3.7515      -0.5820
H(Fragment=2)       7.4668       2.8184      -1.4097
S(Fragment=3)       2.2793       1.6474      -4.3671
O(Fragment=3)      -2.3243      -0.1454      -4.1177
N(Fragment=3)      -0.1323       0.5508      -4.1998
N(Fragment=3)      -0.6384      -1.6826      -3.8415
C(Fragment=3)      -1.1383      -0.4013      -4.0599
C(Fragment=3)       1.2385       0.3541      -4.1574
C(Fragment=3)       1.6449      -1.0071      -3.9214
C(Fragment=3)       0.7023      -1.9710      -3.7747
H(Fragment=3)      -0.4631       1.4960      -4.3655
H(Fragment=3)      -1.3404      -2.4029      -3.7345
H(Fragment=3)       2.7036      -1.2352      -3.8684
H(Fragment=3)       0.9501      -3.0121      -3.5996
O(Fragment=3)       4.8866      -0.5102      -3.9755
H(Fragment=3)       4.2609       0.2150      -4.1730
H(Fragment=3)       5.1840      -0.3049      -3.0761
S(Fragment=4)       2.2793       1.6474      -4.3671
O(Fragment=4)       0.4510       2.4444      -8.8939
N(Fragment=4)       1.3964       1.9739      -6.8491
N(Fragment=4)       2.2392       1.0055      -8.7790
C(Fragment=4)       1.2871       1.8622      -8.2325
C(Fragment=4)       2.3163       1.3594      -6.0151
C(Fragment=4)       3.2507       0.4916      -6.6840
C(Fragment=4)       3.1831       0.3464      -8.0306
H(Fragment=4)       0.7193       2.5959      -6.4190
H(Fragment=4)       2.1915       0.8983      -9.7836
H(Fragment=4)       3.9961      -0.0291      -6.0933
H(Fragment=4)       3.8627      -0.2896      -8.5870
O(Fragment=4)       4.9321      -0.4642      -4.0348
H(Fragment=4)       4.2260       0.2094      -3.9694
H(Fragment=4)       4.5123      -1.2586      -3.6710
S(Fragment=5)       4.7815       5.3672      -0.9529
O(Fragment=5)       7.4903       9.0904       0.8555
N(Fragment=5)       6.2746       7.3992      -0.1237
N(Fragment=5)       7.6286       8.7669      -1.4156
C(Fragment=5)       7.1611       8.4727      -0.1373
C(Fragment=5)       5.8484       6.6330      -1.1964
C(Fragment=5)       6.3898       7.0270      -2.4713
C(Fragment=5)       7.2549       8.0693      -2.5376
H(Fragment=5)       5.9183       7.1551       0.7949
H(Fragment=5)       8.2760       9.5424      -1.4661
H(Fragment=5)       6.0947       6.4764      -3.3576
H(Fragment=5)       7.6967       8.4068      -3.4687
O(Fragment=5)       4.8814       4.7635      -4.3043
H(Fragment=5)       4.7972       4.7628      -3.3299
H(Fragment=5)       4.0293       5.1199      -4.5982



