%chk=7.chk
%nproc=8
%mem=20GB
# opt(ModRedundant) freq b3lyp/6-31g(d) nosymm

Optimization

0 1 
N       1.3457       0.0694       0.0473
C      -1.2728       0.1863       0.0819
C       0.1852       0.1038       0.0549
H      -1.6911      -0.6210       0.6912
H      -1.6798       0.1083      -0.9312
H      -1.5519       1.1524       0.5139
O       0.1514       2.9081       1.3046
H       0.6736       2.3180       1.8698
H       0.6794       2.9360       0.4916



