%chk=Acetonitrile-Water_2.chk
%nproc=8
%mem=20GB
# opt(ModRedundant) freq b3lyp/6-31g(d) nosymm

Optimization

0 1 0 1 0 1 
N(Fragment=1)       1.2608       0.0000       0.0000
C(Fragment=1)      -1.3613       0.0000       0.0000
C(Fragment=1)       0.1006       0.0000       0.0000
H(Fragment=1)      -1.7500      -0.8301       0.5974
H(Fragment=1)      -1.7501      -0.1022      -1.0175
H(Fragment=1)      -1.7500       0.9324       0.4202
O(Fragment=2)       0.7585       2.6964       1.2154
H(Fragment=2)       0.6594       2.9190       2.1420
H(Fragment=2)       0.6718       3.5459       0.7664



