#psi4
#
memory 20 gb

molecule {
0 1
S       2.2485       2.3170      -0.4237
O      -2.3553       0.5244      -0.1743
N      -0.1631       1.2205      -0.2564
N      -0.6694      -1.0129       0.1019
C      -1.1692       0.2684      -0.1165
C       1.2076       1.0237      -0.2140
C       1.6140      -0.3375       0.0221
C       0.6713      -1.3013       0.1687
H      -0.4939       2.1658      -0.4221
H      -1.3714      -1.7332       0.2089
H       2.6727      -0.5656       0.0750
H       0.9191      -2.3425       0.3438
O       4.8557       0.1593      -0.0321
H       4.2299       0.8845      -0.2296
H       5.1531       0.3645       0.8673
--
0 1
S       2.2485       2.3170      -0.4237
O      -2.3553       0.5244      -0.1743
N      -0.1631       1.2205      -0.2564
N      -0.6694      -1.0129       0.1019
C      -1.1692       0.2684      -0.1165
C       1.2076       1.0237      -0.2140
C       1.6140      -0.3375       0.0221
C       0.6713      -1.3013       0.1687
H      -0.4939       2.1658      -0.4221
H      -1.3714      -1.7332       0.2089
H       2.6727      -0.5656       0.0750
H       0.9191      -2.3425       0.3438
O       4.8557       0.1593      -0.0321
H       4.2299       0.8845      -0.2296
H       5.1531       0.3645       0.8673
units angstrom
no_reorient  #important for SAPT in psi4, default
symmetry c1  #important for SAPT in psi4, default
}

set {
basis aug-cc-pVDZ
scf_type DF
freeze_core True
}
energy('sapt2+')
