#psi4
#
memory 20 gb

molecule {
0 1
S       2.2485       2.3170      -0.4237
O      -2.3553       0.5244      -0.1743
N      -0.1631       1.2205      -0.2564
N      -0.6694      -1.0129       0.1019
C      -1.1692       0.2684      -0.1165
C       1.2076       1.0237      -0.2140
C       1.6140      -0.3375       0.0221
C       0.6713      -1.3013       0.1687
H      -0.4939       2.1658      -0.4221
H      -1.3714      -1.7332       0.2089
H       2.6727      -0.5656       0.0750
H       0.9191      -2.3425       0.3438
O       4.8557       0.1593      -0.0321
H       4.2299       0.8845      -0.2296
H       5.1531       0.3645       0.8673
--
0 1
S       5.2492       3.8315      -0.6452
O       9.3696       6.4786      -1.3414
N       7.5399       5.1300      -0.9809
N       9.6775       4.3411      -0.5553
C       8.9029       5.4137      -0.9898
C       6.9170       3.9553      -0.5916
C       7.8123       2.9110      -0.1654
C       9.1495       3.1371      -0.1595
H       6.9458       5.8936      -1.2877
H      10.6749       4.5093      -0.5480
H       7.3956       1.9600       0.1471
H       9.8695       2.3898       0.1552
O       5.5436       0.6423       0.5162
H       5.2884       1.5476       0.2481
H       5.3763       0.1209      -0.2836
units angstrom
no_reorient  #important for SAPT in psi4, default
symmetry c1  #important for SAPT in psi4, default
}

set {
basis aug-cc-pVDZ
scf_type DF
freeze_core True
}
energy('sapt2+')
