%chk=6.chk
%nproc=8
%mem=20GB
# opt(ModRedundant) freq b3lyp/6-31g(d) nosymm

Optimization

0 1 0 1 0 1 0 1 0 1 0 1 
S(Fragment=1)       2.2485       2.3170      -0.4237
O(Fragment=1)      -2.3553       0.5244      -0.1743
N(Fragment=1)      -0.1631       1.2205      -0.2564
N(Fragment=1)      -0.6694      -1.0129       0.1019
C(Fragment=1)      -1.1692       0.2684      -0.1165
C(Fragment=1)       1.2076       1.0237      -0.2140
C(Fragment=1)       1.6140      -0.3375       0.0221
C(Fragment=1)       0.6713      -1.3013       0.1687
H(Fragment=1)      -0.4939       2.1658      -0.4221
H(Fragment=1)      -1.3714      -1.7332       0.2089
H(Fragment=1)       2.6727      -0.5656       0.0750
H(Fragment=1)       0.9191      -2.3425       0.3438
O(Fragment=1)       4.8557       0.1593      -0.0321
H(Fragment=1)       4.2299       0.8845      -0.2296
H(Fragment=1)       5.1531       0.3645       0.8673
S(Fragment=2)       4.2955       4.8360      -0.8642
O(Fragment=2)       5.2133       9.6273      -1.6833
N(Fragment=2)       4.9349       7.3740      -1.3065
N(Fragment=2)       7.0622       8.2866      -1.4274
C(Fragment=2)       5.6921       8.5281      -1.4884
C(Fragment=2)       5.3882       6.0862      -1.0716
C(Fragment=2)       6.8212       5.9493      -1.0333
C(Fragment=2)       7.6029       7.0435      -1.2087
H(Fragment=2)       3.9304       7.5162      -1.3402
H(Fragment=2)       7.6463       9.1023      -1.5556
H(Fragment=2)       7.2485       4.9678      -0.8607
H(Fragment=2)       8.6862       7.0006      -1.1854
O(Fragment=2)       6.9363       2.7209      -0.4652
H(Fragment=2)       6.0838       3.1996      -0.4899
H(Fragment=2)       6.9523       2.2566      -1.3160
S(Fragment=3)       2.7109       2.2227      -4.4614
O(Fragment=3)      -1.8714       0.3773      -4.2029
N(Fragment=3)       0.3124       1.0986      -4.2893
N(Fragment=3)      -0.1674      -1.1404      -3.9299
C(Fragment=3)      -0.6824       0.1350      -4.1474
C(Fragment=3)       1.6853       0.9176      -4.2496
C(Fragment=3)       2.1078      -0.4388      -4.0142
C(Fragment=3)       1.1767      -1.4134      -3.8657
H(Fragment=3)      -0.0296       2.0400      -4.4545
H(Fragment=3)      -0.8609      -1.8687      -3.8214
H(Fragment=3)       3.1692      -0.6547      -3.9634
H(Fragment=3)       1.4367      -2.4516      -3.6910
O(Fragment=3)       5.3435       0.0953      -4.0748
H(Fragment=3)       4.7091       0.8132      -4.2711
H(Fragment=3)       5.6403       0.3040      -3.1759
S(Fragment=4)       2.2444       1.7880      -3.6563
O(Fragment=4)       0.4557       2.5493      -8.2050
N(Fragment=4)       1.3834       2.0951      -6.1484
N(Fragment=4)       2.2448       1.1138      -8.0636
C(Fragment=4)       1.2867       1.9732      -7.5319
C(Fragment=4)       2.2966       1.4881      -5.3017
C(Fragment=4)       3.2381       0.6166      -5.9559
C(Fragment=4)       3.1828       0.4615      -7.3020
H(Fragment=4)       0.7016       2.7192      -5.7290
H(Fragment=4)       2.2062       0.9992      -9.0678
H(Fragment=4)       3.9789       0.1013      -5.3547
H(Fragment=4)       3.8682      -0.1775      -7.8476
O(Fragment=4)       4.8970      -0.3174      -3.2848
H(Fragment=4)       4.1895       0.3557      -3.2306
H(Fragment=4)       4.4751      -1.1096      -2.9190
S(Fragment=5)       4.3195       4.8232      -0.8229
O(Fragment=5)       7.0472       8.5581       0.9322
N(Fragment=5)       5.8218       6.8602      -0.0229
N(Fragment=5)       7.1686       8.2139      -1.3368
C(Fragment=5)       6.7098       7.9320      -0.0525
C(Fragment=5)       5.3866       6.0851      -1.0855
C(Fragment=5)       5.9193       6.4667      -2.3678
C(Fragment=5)       6.7856       7.5069      -2.4498
H(Fragment=5)       5.4718       6.6249       0.9004
H(Fragment=5)       7.8167       8.9880      -1.3990
H(Fragment=5)       5.6170       5.9087      -3.2470
H(Fragment=5)       7.2211       7.8353      -3.3870
O(Fragment=5)       4.3941       4.1894      -4.1694
H(Fragment=5)       4.3170       4.1975      -3.1945
H(Fragment=5)       3.5405       4.5445      -4.4604



