#psi4
#
memory ${memory} gb

molecule {
${geometry}units angstrom
no_reorient  #important for SAPT in psi4, default
symmetry c1  #important for SAPT in psi4, default
}

set {
basis def2-QZVPPD
scf_type DF
freeze_core True
}
energy('mp2', bsse_type='cp')
