#psi4
#
memory ${memory} gb

molecule {
${geometry}units angstrom
no_reorient  #important for SAPT in psi4, default
symmetry c1  #important for SAPT in psi4, default
}

set {
# https://doi.org/10.1021/acs.jctc.7b00365
# DZVP-DFT basis set combined with reparameterization of D3BJ
basis dzvp
dft_dispersion_parameters [1.0, 3.7458, 0.4791, 5.2344]
scf_type DF
freeze_core True
}
energy('b3lyp-d3bj')

